p edge 250 3193
e 0 7
e 0 11
e 0 40
e 0 59
e 0 73
e 0 74
e 0 79
e 0 80
e 0 81
e 0 86
e 0 96
e 0 98
e 0 105
e 0 109
e 0 116
e 0 121
e 0 122
e 0 134
e 0 149
e 0 160
e 0 167
e 0 169
e 0 174
e 0 183
e 0 188
e 0 195
e 0 203
e 0 209
e 0 228
e 1 14
e 1 22
e 1 57
e 1 83
e 1 88
e 1 91
e 1 93
e 1 108
e 1 110
e 1 112
e 1 115
e 1 144
e 1 171
e 1 173
e 1 180
e 1 190
e 1 197
e 1 221
e 1 232
e 1 244
e 1 247
e 2 7
e 2 29
e 2 35
e 2 46
e 2 100
e 2 111
e 2 115
e 2 142
e 2 151
e 2 156
e 2 159
e 2 163
e 2 174
e 2 179
e 2 187
e 2 197
e 2 220
e 2 237
e 2 249
e 3 13
e 3 20
e 3 23
e 3 31
e 3 38
e 3 46
e 3 55
e 3 56
e 3 59
e 3 93
e 3 112
e 3 115
e 3 136
e 3 150
e 3 153
e 3 155
e 3 167
e 3 181
e 3 185
e 3 187
e 3 206
e 3 217
e 3 224
e 3 225
e 3 229
e 3 233
e 3 238
e 3 240
e 3 241
e 3 246
e 4 14
e 4 21
e 4 37
e 4 67
e 4 72
e 4 84
e 4 96
e 4 100
e 4 102
e 4 130
e 4 131
e 4 146
e 4 151
e 4 176
e 4 205
e 4 216
e 4 218
e 4 220
e 4 233
e 4 248
e 5 7
e 5 11
e 5 22
e 5 25
e 5 26
e 5 30
e 5 34
e 5 41
e 5 47
e 5 49
e 5 53
e 5 55
e 5 61
e 5 66
e 5 77
e 5 94
e 5 97
e 5 98
e 5 116
e 5 123
e 5 131
e 5 137
e 5 140
e 5 149
e 5 156
e 5 168
e 5 178
e 5 179
e 5 188
e 5 190
e 5 199
e 5 201
e 5 209
e 5 214
e 5 220
e 5 222
e 5 235
e 6 11
e 6 17
e 6 19
e 6 29
e 6 39
e 6 72
e 6 79
e 6 87
e 6 94
e 6 95
e 6 112
e 6 115
e 6 125
e 6 133
e 6 135
e 6 143
e 6 145
e 6 163
e 6 165
e 6 167
e 6 169
e 6 170
e 6 171
e 6 174
e 6 181
e 6 188
e 6 189
e 6 191
e 6 225
e 6 233
e 6 240
e 6 243
e 6 245
e 7 14
e 7 53
e 7 67
e 7 68
e 7 70
e 7 73
e 7 74
e 7 75
e 7 81
e 7 88
e 7 99
e 7 107
e 7 108
e 7 109
e 7 110
e 7 111
e 7 119
e 7 129
e 7 131
e 7 134
e 7 141
e 7 143
e 7 148
e 7 162
e 7 169
e 7 177
e 7 187
e 7 198
e 7 204
e 7 207
e 7 213
e 7 234
e 7 249
e 8 9
e 8 17
e 8 18
e 8 26
e 8 34
e 8 42
e 8 50
e 8 89
e 8 93
e 8 129
e 8 133
e 8 140
e 8 156
e 8 165
e 8 189
e 8 196
e 8 199
e 8 220
e 8 229
e 8 248
e 9 60
e 9 63
e 9 74
e 9 89
e 9 97
e 9 152
e 9 169
e 9 180
e 9 188
e 9 190
e 9 194
e 9 196
e 9 207
e 9 208
e 9 209
e 9 214
e 9 219
e 9 228
e 9 235
e 9 244
e 9 245
e 10 42
e 10 76
e 10 84
e 10 95
e 10 112
e 10 114
e 10 118
e 10 144
e 10 173
e 10 176
e 10 178
e 10 182
e 10 194
e 10 198
e 10 200
e 10 205
e 10 214
e 10 217
e 10 238
e 10 248
e 11 51
e 11 76
e 11 80
e 11 81
e 11 83
e 11 98
e 11 104
e 11 106
e 11 107
e 11 132
e 11 140
e 11 142
e 11 161
e 11 172
e 11 181
e 11 210
e 11 211
e 11 228
e 11 231
e 11 242
e 12 45
e 12 69
e 12 75
e 12 82
e 12 88
e 12 100
e 12 114
e 12 120
e 12 130
e 12 132
e 12 137
e 12 139
e 12 154
e 12 160
e 12 161
e 12 183
e 12 185
e 12 197
e 12 223
e 12 240
e 13 27
e 13 44
e 13 51
e 13 77
e 13 84
e 13 85
e 13 103
e 13 115
e 13 116
e 13 146
e 13 151
e 13 161
e 13 169
e 13 173
e 13 178
e 13 197
e 13 201
e 13 225
e 13 238
e 13 241
e 13 244
e 14 15
e 14 19
e 14 36
e 14 38
e 14 46
e 14 64
e 14 66
e 14 70
e 14 71
e 14 103
e 14 124
e 14 126
e 14 135
e 14 138
e 14 141
e 14 143
e 14 144
e 14 152
e 14 156
e 14 161
e 14 174
e 14 191
e 14 202
e 14 204
e 14 208
e 14 229
e 14 235
e 15 26
e 15 27
e 15 34
e 15 36
e 15 41
e 15 56
e 15 62
e 15 73
e 15 74
e 15 93
e 15 111
e 15 120
e 15 137
e 15 138
e 15 146
e 15 148
e 15 151
e 15 154
e 15 156
e 15 174
e 15 178
e 15 184
e 15 194
e 15 195
e 15 200
e 15 204
e 15 210
e 15 217
e 15 232
e 15 240
e 16 30
e 16 35
e 16 46
e 16 48
e 16 51
e 16 53
e 16 60
e 16 77
e 16 80
e 16 111
e 16 113
e 16 124
e 16 136
e 16 143
e 16 151
e 16 155
e 16 159
e 16 163
e 16 179
e 16 196
e 16 246
e 16 247
e 17 18
e 17 22
e 17 59
e 17 68
e 17 77
e 17 84
e 17 119
e 17 123
e 17 126
e 17 135
e 17 151
e 17 155
e 17 179
e 17 185
e 17 188
e 17 189
e 17 208
e 17 236
e 17 245
e 18 71
e 18 86
e 18 89
e 18 90
e 18 91
e 18 114
e 18 117
e 18 129
e 18 132
e 18 146
e 18 150
e 18 156
e 18 175
e 18 187
e 18 193
e 18 202
e 18 209
e 18 211
e 18 215
e 18 218
e 18 220
e 18 246
e 19 36
e 19 56
e 19 59
e 19 72
e 19 75
e 19 84
e 19 90
e 19 102
e 19 107
e 19 111
e 19 151
e 19 158
e 19 160
e 19 167
e 19 174
e 19 178
e 19 184
e 19 189
e 19 190
e 19 216
e 20 35
e 20 49
e 20 54
e 20 58
e 20 59
e 20 68
e 20 75
e 20 85
e 20 92
e 20 113
e 20 114
e 20 117
e 20 129
e 20 130
e 20 145
e 20 152
e 20 154
e 20 170
e 20 201
e 20 224
e 20 241
e 20 242
e 21 27
e 21 30
e 21 31
e 21 32
e 21 77
e 21 78
e 21 95
e 21 109
e 21 116
e 21 123
e 21 130
e 21 137
e 21 138
e 21 153
e 21 154
e 21 161
e 21 167
e 21 183
e 21 198
e 21 202
e 21 214
e 21 221
e 21 223
e 21 249
e 22 50
e 22 55
e 22 86
e 22 88
e 22 94
e 22 96
e 22 118
e 22 123
e 22 130
e 22 134
e 22 135
e 22 136
e 22 137
e 22 164
e 22 167
e 22 191
e 22 194
e 22 198
e 22 202
e 22 204
e 22 205
e 22 222
e 22 224
e 22 229
e 22 232
e 22 237
e 23 35
e 23 37
e 23 42
e 23 52
e 23 63
e 23 80
e 23 82
e 23 108
e 23 110
e 23 126
e 23 133
e 23 134
e 23 140
e 23 151
e 23 160
e 23 168
e 23 170
e 23 184
e 23 193
e 23 202
e 23 203
e 23 233
e 23 235
e 23 236
e 24 31
e 24 41
e 24 48
e 24 51
e 24 57
e 24 60
e 24 66
e 24 77
e 24 90
e 24 109
e 24 112
e 24 117
e 24 128
e 24 129
e 24 163
e 24 184
e 24 190
e 24 193
e 24 217
e 24 223
e 24 225
e 24 230
e 24 232
e 25 26
e 25 33
e 25 39
e 25 57
e 25 89
e 25 90
e 25 105
e 25 147
e 25 164
e 25 166
e 25 191
e 25 215
e 25 216
e 25 231
e 25 235
e 25 239
e 25 242
e 26 31
e 26 32
e 26 38
e 26 45
e 26 50
e 26 67
e 26 87
e 26 93
e 26 94
e 26 103
e 26 106
e 26 122
e 26 125
e 26 147
e 26 158
e 26 161
e 26 162
e 26 165
e 26 175
e 26 178
e 26 184
e 26 192
e 26 222
e 26 232
e 26 242
e 26 244
e 26 245
e 26 248
e 27 31
e 27 37
e 27 41
e 27 44
e 27 47
e 27 63
e 27 90
e 27 93
e 27 108
e 27 110
e 27 114
e 27 122
e 27 143
e 27 177
e 27 190
e 27 193
e 27 194
e 27 217
e 27 229
e 27 245
e 28 34
e 28 58
e 28 70
e 28 72
e 28 82
e 28 106
e 28 112
e 28 129
e 28 132
e 28 157
e 28 164
e 28 167
e 28 168
e 28 225
e 28 243
e 28 248
e 29 40
e 29 48
e 29 50
e 29 64
e 29 70
e 29 84
e 29 88
e 29 97
e 29 99
e 29 107
e 29 132
e 29 135
e 29 137
e 29 143
e 29 152
e 29 162
e 29 177
e 29 192
e 29 195
e 29 202
e 29 210
e 29 211
e 29 217
e 29 221
e 29 225
e 29 226
e 30 57
e 30 82
e 30 93
e 30 96
e 30 100
e 30 112
e 30 121
e 30 125
e 30 129
e 30 133
e 30 164
e 30 190
e 30 202
e 30 222
e 30 223
e 30 240
e 30 242
e 31 39
e 31 54
e 31 75
e 31 78
e 31 107
e 31 115
e 31 153
e 31 161
e 31 162
e 31 163
e 31 173
e 31 186
e 31 191
e 31 193
e 31 196
e 31 203
e 31 210
e 31 234
e 31 238
e 32 36
e 32 43
e 32 51
e 32 52
e 32 55
e 32 58
e 32 69
e 32 73
e 32 74
e 32 77
e 32 88
e 32 95
e 32 104
e 32 107
e 32 113
e 32 114
e 32 122
e 32 164
e 32 176
e 32 201
e 32 208
e 32 237
e 32 241
e 33 61
e 33 70
e 33 74
e 33 88
e 33 92
e 33 105
e 33 118
e 33 121
e 33 123
e 33 144
e 33 189
e 33 193
e 33 216
e 33 225
e 33 239
e 33 241
e 34 59
e 34 70
e 34 72
e 34 73
e 34 80
e 34 86
e 34 93
e 34 106
e 34 107
e 34 151
e 34 152
e 34 165
e 34 166
e 34 171
e 34 176
e 34 180
e 34 190
e 34 191
e 34 192
e 34 194
e 34 199
e 34 203
e 34 212
e 34 220
e 34 222
e 34 229
e 34 237
e 34 238
e 34 246
e 34 249
e 35 37
e 35 48
e 35 69
e 35 75
e 35 82
e 35 95
e 35 106
e 35 111
e 35 121
e 35 124
e 35 131
e 35 138
e 35 145
e 35 147
e 35 151
e 35 160
e 35 163
e 35 172
e 35 175
e 35 195
e 35 197
e 35 220
e 35 223
e 35 226
e 35 239
e 36 40
e 36 74
e 36 85
e 36 94
e 36 96
e 36 107
e 36 140
e 36 147
e 36 155
e 36 167
e 36 174
e 36 186
e 36 222
e 36 237
e 37 46
e 37 49
e 37 69
e 37 76
e 37 78
e 37 89
e 37 101
e 37 106
e 37 138
e 37 149
e 37 150
e 37 151
e 37 153
e 37 167
e 37 190
e 37 204
e 37 223
e 37 232
e 37 249
e 38 39
e 38 40
e 38 67
e 38 73
e 38 74
e 38 82
e 38 98
e 38 105
e 38 106
e 38 122
e 38 140
e 38 159
e 38 178
e 38 181
e 38 191
e 38 208
e 38 222
e 38 234
e 38 243
e 39 40
e 39 41
e 39 42
e 39 58
e 39 60
e 39 77
e 39 78
e 39 89
e 39 99
e 39 105
e 39 109
e 39 114
e 39 119
e 39 124
e 39 134
e 39 140
e 39 151
e 39 160
e 39 163
e 39 166
e 39 167
e 39 173
e 39 180
e 39 184
e 39 187
e 39 190
e 39 205
e 39 222
e 39 226
e 39 228
e 39 244
e 40 44
e 40 46
e 40 52
e 40 74
e 40 96
e 40 106
e 40 118
e 40 120
e 40 122
e 40 125
e 40 137
e 40 138
e 40 146
e 40 159
e 40 160
e 40 167
e 40 168
e 40 169
e 40 172
e 40 173
e 40 174
e 40 187
e 40 197
e 40 200
e 40 208
e 40 223
e 40 228
e 40 232
e 40 238
e 40 244
e 40 247
e 41 46
e 41 65
e 41 69
e 41 71
e 41 82
e 41 98
e 41 110
e 41 113
e 41 125
e 41 133
e 41 136
e 41 177
e 41 182
e 41 183
e 41 185
e 41 191
e 41 192
e 41 200
e 41 235
e 41 248
e 42 63
e 42 64
e 42 65
e 42 73
e 42 74
e 42 76
e 42 89
e 42 98
e 42 104
e 42 107
e 42 119
e 42 122
e 42 126
e 42 133
e 42 142
e 42 174
e 42 232
e 42 236
e 42 247
e 43 45
e 43 47
e 43 53
e 43 56
e 43 78
e 43 79
e 43 80
e 43 114
e 43 127
e 43 135
e 43 137
e 43 141
e 43 160
e 43 167
e 43 183
e 43 193
e 43 200
e 43 209
e 43 212
e 43 239
e 44 63
e 44 67
e 44 78
e 44 82
e 44 109
e 44 140
e 44 141
e 44 153
e 44 161
e 44 165
e 44 170
e 44 179
e 44 182
e 44 186
e 44 193
e 44 201
e 44 230
e 44 245
e 45 47
e 45 48
e 45 52
e 45 55
e 45 72
e 45 85
e 45 103
e 45 113
e 45 122
e 45 183
e 45 193
e 45 203
e 45 218
e 45 223
e 45 229
e 45 231
e 45 247
e 46 48
e 46 52
e 46 58
e 46 62
e 46 67
e 46 71
e 46 72
e 46 77
e 46 80
e 46 93
e 46 94
e 46 104
e 46 133
e 46 148
e 46 177
e 46 201
e 46 221
e 46 225
e 46 237
e 47 75
e 47 78
e 47 84
e 47 86
e 47 92
e 47 95
e 47 115
e 47 143
e 47 149
e 47 162
e 47 170
e 47 182
e 47 199
e 47 212
e 47 216
e 47 225
e 47 226
e 47 244
e 47 247
e 47 249
e 48 50
e 48 58
e 48 71
e 48 78
e 48 92
e 48 95
e 48 101
e 48 127
e 48 134
e 48 147
e 48 149
e 48 173
e 48 186
e 48 199
e 48 211
e 48 247
e 49 56
e 49 84
e 49 98
e 49 102
e 49 104
e 49 130
e 49 131
e 49 136
e 49 146
e 49 147
e 49 157
e 49 167
e 49 175
e 49 192
e 49 203
e 49 219
e 49 232
e 49 245
e 49 247
e 50 51
e 50 58
e 50 60
e 50 66
e 50 68
e 50 81
e 50 92
e 50 93
e 50 97
e 50 98
e 50 106
e 50 107
e 50 109
e 50 115
e 50 116
e 50 124
e 50 128
e 50 145
e 50 153
e 50 154
e 50 176
e 50 201
e 50 209
e 50 221
e 50 243
e 50 245
e 51 81
e 51 90
e 51 106
e 51 111
e 51 126
e 51 140
e 51 142
e 51 148
e 51 173
e 51 175
e 51 188
e 51 193
e 51 199
e 51 215
e 51 216
e 51 217
e 51 242
e 51 244
e 51 245
e 52 61
e 52 72
e 52 77
e 52 78
e 52 83
e 52 89
e 52 97
e 52 110
e 52 119
e 52 123
e 52 132
e 52 134
e 52 143
e 52 145
e 52 154
e 52 198
e 52 205
e 52 206
e 52 207
e 52 208
e 52 218
e 52 226
e 52 228
e 52 233
e 52 242
e 53 60
e 53 70
e 53 72
e 53 74
e 53 78
e 53 81
e 53 90
e 53 121
e 53 177
e 53 184
e 53 198
e 53 201
e 53 206
e 53 207
e 54 67
e 54 71
e 54 78
e 54 88
e 54 97
e 54 109
e 54 118
e 54 122
e 54 125
e 54 153
e 54 173
e 54 185
e 54 194
e 54 207
e 54 241
e 54 242
e 55 76
e 55 80
e 55 110
e 55 113
e 55 115
e 55 118
e 55 141
e 55 149
e 55 153
e 55 174
e 55 177
e 55 208
e 55 215
e 56 62
e 56 63
e 56 64
e 56 77
e 56 100
e 56 102
e 56 112
e 56 115
e 56 137
e 56 146
e 56 153
e 56 160
e 56 180
e 56 182
e 56 190
e 56 221
e 56 235
e 57 66
e 57 72
e 57 89
e 57 90
e 57 95
e 57 101
e 57 107
e 57 114
e 57 121
e 57 134
e 57 149
e 57 156
e 57 162
e 57 167
e 57 171
e 57 186
e 57 194
e 57 208
e 57 210
e 57 220
e 57 227
e 57 234
e 58 60
e 58 63
e 58 73
e 58 75
e 58 82
e 58 93
e 58 95
e 58 96
e 58 98
e 58 102
e 58 103
e 58 117
e 58 123
e 58 143
e 58 148
e 58 157
e 58 180
e 58 181
e 58 212
e 58 216
e 58 248
e 59 85
e 59 87
e 59 89
e 59 93
e 59 95
e 59 107
e 59 141
e 59 147
e 59 148
e 59 152
e 59 153
e 59 162
e 59 163
e 59 164
e 59 168
e 59 173
e 59 179
e 59 181
e 59 188
e 59 217
e 59 230
e 59 237
e 60 79
e 60 93
e 60 94
e 60 108
e 60 113
e 60 119
e 60 123
e 60 132
e 60 134
e 60 149
e 60 168
e 60 171
e 60 174
e 60 177
e 60 180
e 60 194
e 60 199
e 60 203
e 60 207
e 60 209
e 60 211
e 60 222
e 60 224
e 60 226
e 60 241
e 61 62
e 61 87
e 61 90
e 61 128
e 61 135
e 61 147
e 61 172
e 61 193
e 61 194
e 61 215
e 61 216
e 62 77
e 62 84
e 62 90
e 62 93
e 62 96
e 62 101
e 62 116
e 62 118
e 62 139
e 62 141
e 62 145
e 62 154
e 62 155
e 62 160
e 62 164
e 62 168
e 62 169
e 62 182
e 62 194
e 62 208
e 62 211
e 62 219
e 63 91
e 63 96
e 63 110
e 63 117
e 63 135
e 63 154
e 63 155
e 63 168
e 63 170
e 63 176
e 63 205
e 63 223
e 63 234
e 63 246
e 64 66
e 64 79
e 64 84
e 64 88
e 64 98
e 64 116
e 64 128
e 64 133
e 64 140
e 64 148
e 64 151
e 64 160
e 64 164
e 64 165
e 64 180
e 64 190
e 64 195
e 64 209
e 64 234
e 64 239
e 64 242
e 65 66
e 65 78
e 65 81
e 65 82
e 65 84
e 65 107
e 65 108
e 65 110
e 65 122
e 65 124
e 65 125
e 65 133
e 65 136
e 65 144
e 65 148
e 65 151
e 65 162
e 65 199
e 65 206
e 65 218
e 65 219
e 65 220
e 65 225
e 65 229
e 66 74
e 66 75
e 66 94
e 66 95
e 66 100
e 66 102
e 66 109
e 66 139
e 66 140
e 66 147
e 66 148
e 66 152
e 66 171
e 66 183
e 66 187
e 66 203
e 66 204
e 66 209
e 66 233
e 67 74
e 67 94
e 67 98
e 67 111
e 67 125
e 67 127
e 67 129
e 67 130
e 67 131
e 67 138
e 67 145
e 67 147
e 67 196
e 67 198
e 67 208
e 67 213
e 67 219
e 67 229
e 67 230
e 67 231
e 67 246
e 68 73
e 68 77
e 68 78
e 68 83
e 68 84
e 68 85
e 68 86
e 68 87
e 68 91
e 68 105
e 68 115
e 68 143
e 68 149
e 68 158
e 68 160
e 68 163
e 68 168
e 68 171
e 68 176
e 68 186
e 68 188
e 68 194
e 68 195
e 68 201
e 68 203
e 68 204
e 68 208
e 68 218
e 68 227
e 68 233
e 68 234
e 68 235
e 68 241
e 68 249
e 69 70
e 69 80
e 69 104
e 69 105
e 69 122
e 69 152
e 69 153
e 69 165
e 69 203
e 69 210
e 69 213
e 69 219
e 69 236
e 70 89
e 70 129
e 70 134
e 70 139
e 70 140
e 70 142
e 70 162
e 70 178
e 70 179
e 70 186
e 70 188
e 70 203
e 70 205
e 70 229
e 71 80
e 71 85
e 71 90
e 71 123
e 71 137
e 71 143
e 71 151
e 71 162
e 71 164
e 71 168
e 71 173
e 71 180
e 71 204
e 71 219
e 71 225
e 71 228
e 71 230
e 71 232
e 71 237
e 71 246
e 72 95
e 72 129
e 72 136
e 72 144
e 72 170
e 72 181
e 72 187
e 72 188
e 72 203
e 72 206
e 72 210
e 72 223
e 72 226
e 72 243
e 73 75
e 73 88
e 73 92
e 73 95
e 73 96
e 73 138
e 73 141
e 73 153
e 73 154
e 73 158
e 73 172
e 73 174
e 73 207
e 73 209
e 73 248
e 74 75
e 74 86
e 74 135
e 74 141
e 74 142
e 74 146
e 74 155
e 74 165
e 74 190
e 74 200
e 74 211
e 74 224
e 74 234
e 74 236
e 74 238
e 74 248
e 75 90
e 75 102
e 75 104
e 75 105
e 75 124
e 75 129
e 75 151
e 75 156
e 75 161
e 75 171
e 75 175
e 75 195
e 75 213
e 75 215
e 75 225
e 75 235
e 75 242
e 75 245
e 76 86
e 76 104
e 76 112
e 76 122
e 76 123
e 76 126
e 76 133
e 76 140
e 76 155
e 76 160
e 76 177
e 76 184
e 76 188
e 76 230
e 76 238
e 76 240
e 76 249
e 77 78
e 77 85
e 77 95
e 77 112
e 77 121
e 77 136
e 77 160
e 77 163
e 77 179
e 77 187
e 77 192
e 77 193
e 77 212
e 77 238
e 78 98
e 78 103
e 78 106
e 78 161
e 78 167
e 78 171
e 78 174
e 78 181
e 78 188
e 78 192
e 78 200
e 78 225
e 78 227
e 78 231
e 79 84
e 79 87
e 79 105
e 79 106
e 79 114
e 79 119
e 79 120
e 79 132
e 79 136
e 79 142
e 79 143
e 79 145
e 79 163
e 79 167
e 79 168
e 79 173
e 79 175
e 79 180
e 79 181
e 79 197
e 79 199
e 79 201
e 79 209
e 80 81
e 80 96
e 80 98
e 80 107
e 80 119
e 80 138
e 80 139
e 80 144
e 80 154
e 80 160
e 80 172
e 80 189
e 80 200
e 80 216
e 80 231
e 81 97
e 81 100
e 81 101
e 81 125
e 81 133
e 81 135
e 81 139
e 81 171
e 81 176
e 81 177
e 81 183
e 81 213
e 81 218
e 81 242
e 81 244
e 81 245
e 81 248
e 82 88
e 82 108
e 82 130
e 82 140
e 82 145
e 82 148
e 82 158
e 82 162
e 82 166
e 82 170
e 82 173
e 82 174
e 82 196
e 82 209
e 82 214
e 82 219
e 82 223
e 82 227
e 82 242
e 83 90
e 83 102
e 83 131
e 83 140
e 83 149
e 83 172
e 83 179
e 83 193
e 83 199
e 83 213
e 83 230
e 83 235
e 83 240
e 84 86
e 84 89
e 84 97
e 84 103
e 84 106
e 84 121
e 84 122
e 84 143
e 84 144
e 84 146
e 84 154
e 84 157
e 84 166
e 84 167
e 84 173
e 84 191
e 84 203
e 84 215
e 84 227
e 84 231
e 84 233
e 84 249
e 85 120
e 85 125
e 85 143
e 85 163
e 85 172
e 85 183
e 85 218
e 85 231
e 85 237
e 85 244
e 86 90
e 86 100
e 86 112
e 86 130
e 86 161
e 86 174
e 86 190
e 86 194
e 86 223
e 86 229
e 86 230
e 86 240
e 86 241
e 86 247
e 87 93
e 87 104
e 87 105
e 87 106
e 87 112
e 87 162
e 87 166
e 87 169
e 87 171
e 87 183
e 87 193
e 87 198
e 87 199
e 87 207
e 87 208
e 87 212
e 87 214
e 87 221
e 87 227
e 87 238
e 88 89
e 88 92
e 88 97
e 88 121
e 88 124
e 88 145
e 88 151
e 88 152
e 88 156
e 88 160
e 88 186
e 88 195
e 88 201
e 88 204
e 88 207
e 88 234
e 88 240
e 88 245
e 89 113
e 89 115
e 89 126
e 89 140
e 89 151
e 89 163
e 89 169
e 89 192
e 89 220
e 89 232
e 89 233
e 89 247
e 90 100
e 90 106
e 90 107
e 90 149
e 90 151
e 90 156
e 90 172
e 90 182
e 90 188
e 90 209
e 90 225
e 90 240
e 91 93
e 91 100
e 91 101
e 91 107
e 91 122
e 91 126
e 91 128
e 91 148
e 91 177
e 91 185
e 91 193
e 91 202
e 91 207
e 91 211
e 91 229
e 91 231
e 91 237
e 91 247
e 92 97
e 92 109
e 92 111
e 92 119
e 92 124
e 92 142
e 92 149
e 92 158
e 92 166
e 92 192
e 92 201
e 92 203
e 92 223
e 92 228
e 92 236
e 92 245
e 93 104
e 93 116
e 93 117
e 93 152
e 93 157
e 93 158
e 93 174
e 93 177
e 93 198
e 93 222
e 93 226
e 93 227
e 93 229
e 93 236
e 93 246
e 94 102
e 94 110
e 94 138
e 94 166
e 94 208
e 94 222
e 94 229
e 94 244
e 95 97
e 95 108
e 95 124
e 95 130
e 95 133
e 95 135
e 95 149
e 95 150
e 95 156
e 95 157
e 95 160
e 95 184
e 95 186
e 95 201
e 95 210
e 95 216
e 95 222
e 95 246
e 96 97
e 96 98
e 96 111
e 96 113
e 96 118
e 96 127
e 96 129
e 96 146
e 96 148
e 96 154
e 96 180
e 96 192
e 96 204
e 96 206
e 96 220
e 96 222
e 96 242
e 97 100
e 97 101
e 97 114
e 97 121
e 97 129
e 97 132
e 97 133
e 97 175
e 97 180
e 97 185
e 97 186
e 97 189
e 97 191
e 97 215
e 97 219
e 97 243
e 98 99
e 98 103
e 98 110
e 98 114
e 98 119
e 98 134
e 98 136
e 98 143
e 98 145
e 98 157
e 98 158
e 98 167
e 98 168
e 98 179
e 98 205
e 98 212
e 98 225
e 98 228
e 98 235
e 98 240
e 99 106
e 99 111
e 99 125
e 99 128
e 99 131
e 99 132
e 99 133
e 99 134
e 99 162
e 99 190
e 99 210
e 99 216
e 99 232
e 99 236
e 99 239
e 99 244
e 100 105
e 100 136
e 100 141
e 100 160
e 100 163
e 100 191
e 100 197
e 100 198
e 100 206
e 100 211
e 100 215
e 100 222
e 100 223
e 100 231
e 100 243
e 100 249
e 101 103
e 101 134
e 101 139
e 101 141
e 101 145
e 101 166
e 101 177
e 101 182
e 101 189
e 101 200
e 101 203
e 101 226
e 101 246
e 101 249
e 102 121
e 102 140
e 102 146
e 102 149
e 102 157
e 102 163
e 102 166
e 102 171
e 102 172
e 102 188
e 102 196
e 102 204
e 102 205
e 103 121
e 103 126
e 103 135
e 103 138
e 103 147
e 103 148
e 103 153
e 103 201
e 103 211
e 103 226
e 103 228
e 103 231
e 103 236
e 103 240
e 104 117
e 104 127
e 104 152
e 104 153
e 104 156
e 104 166
e 104 169
e 104 175
e 104 182
e 104 189
e 104 199
e 104 213
e 104 223
e 104 224
e 104 229
e 104 235
e 104 244
e 105 135
e 105 136
e 105 156
e 105 172
e 105 177
e 105 188
e 105 194
e 105 195
e 105 205
e 105 227
e 105 230
e 105 239
e 105 248
e 106 112
e 106 156
e 106 159
e 106 171
e 106 172
e 106 179
e 106 182
e 106 184
e 106 192
e 106 206
e 106 211
e 106 216
e 106 226
e 107 115
e 107 119
e 107 120
e 107 123
e 107 156
e 107 191
e 107 201
e 107 205
e 107 210
e 107 211
e 107 213
e 107 219
e 107 224
e 107 228
e 108 115
e 108 116
e 108 125
e 108 128
e 108 134
e 108 142
e 108 146
e 108 156
e 108 158
e 108 161
e 108 164
e 108 171
e 108 178
e 108 199
e 108 201
e 108 219
e 108 223
e 108 236
e 109 131
e 109 141
e 109 156
e 109 159
e 109 166
e 109 181
e 109 188
e 109 189
e 109 201
e 109 209
e 109 219
e 109 228
e 109 236
e 109 239
e 109 240
e 109 246
e 110 113
e 110 123
e 110 124
e 110 140
e 110 146
e 110 148
e 110 149
e 110 156
e 110 161
e 110 162
e 110 171
e 110 181
e 110 183
e 110 188
e 110 197
e 110 209
e 110 211
e 110 212
e 110 216
e 110 217
e 111 134
e 111 153
e 111 155
e 111 158
e 111 207
e 111 229
e 111 247
e 111 249
e 112 120
e 112 121
e 112 126
e 112 135
e 112 137
e 112 173
e 112 193
e 112 207
e 112 210
e 112 211
e 112 216
e 112 217
e 112 231
e 112 247
e 113 129
e 113 140
e 113 143
e 113 149
e 113 155
e 113 171
e 113 202
e 113 220
e 113 248
e 114 116
e 114 122
e 114 127
e 114 135
e 114 156
e 114 159
e 114 164
e 114 180
e 114 200
e 114 205
e 114 207
e 114 219
e 114 228
e 115 121
e 115 126
e 115 129
e 115 130
e 115 131
e 115 132
e 115 136
e 115 142
e 115 145
e 115 152
e 115 157
e 115 165
e 115 168
e 115 173
e 115 188
e 115 211
e 115 235
e 116 120
e 116 136
e 116 142
e 116 144
e 116 159
e 116 161
e 116 172
e 116 175
e 116 177
e 116 179
e 116 185
e 116 195
e 116 203
e 116 224
e 116 227
e 116 229
e 116 230
e 116 233
e 116 237
e 117 121
e 117 131
e 117 144
e 117 145
e 117 146
e 117 149
e 117 152
e 117 157
e 117 192
e 117 204
e 117 215
e 117 218
e 117 221
e 117 232
e 117 233
e 117 234
e 117 238
e 117 243
e 117 245
e 118 119
e 118 133
e 118 147
e 118 162
e 118 195
e 118 203
e 118 214
e 118 222
e 118 223
e 118 239
e 119 121
e 119 135
e 119 137
e 119 150
e 119 154
e 119 174
e 119 183
e 119 186
e 119 187
e 119 188
e 119 198
e 119 205
e 119 221
e 119 229
e 120 141
e 120 159
e 120 165
e 120 181
e 120 197
e 120 199
e 120 202
e 120 204
e 120 236
e 120 243
e 121 122
e 121 127
e 121 128
e 121 135
e 121 150
e 121 164
e 121 165
e 121 177
e 121 188
e 121 194
e 121 205
e 121 221
e 121 240
e 121 248
e 122 129
e 122 135
e 122 136
e 122 140
e 122 142
e 122 155
e 122 156
e 122 157
e 122 164
e 122 166
e 122 189
e 122 204
e 122 209
e 122 231
e 122 241
e 122 245
e 123 126
e 123 143
e 123 150
e 123 158
e 123 166
e 123 167
e 123 168
e 123 174
e 123 178
e 123 193
e 123 199
e 123 204
e 123 209
e 123 216
e 123 218
e 123 222
e 123 227
e 123 232
e 123 247
e 124 133
e 124 146
e 124 147
e 124 149
e 124 150
e 124 152
e 124 184
e 124 198
e 124 200
e 124 201
e 124 212
e 124 222
e 124 231
e 124 232
e 124 248
e 125 130
e 125 134
e 125 144
e 125 148
e 125 152
e 125 153
e 125 158
e 125 172
e 125 178
e 125 179
e 125 183
e 125 197
e 125 205
e 125 238
e 125 240
e 126 132
e 126 138
e 126 142
e 126 143
e 126 155
e 126 160
e 126 164
e 126 171
e 126 172
e 126 203
e 126 211
e 126 215
e 126 233
e 126 242
e 126 246
e 127 132
e 127 137
e 127 141
e 127 149
e 127 151
e 127 194
e 127 202
e 127 231
e 127 235
e 127 236
e 127 241
e 128 133
e 128 135
e 128 141
e 128 142
e 128 156
e 128 167
e 128 189
e 128 205
e 128 235
e 128 236
e 128 243
e 129 137
e 129 152
e 129 154
e 129 167
e 129 173
e 129 179
e 129 182
e 129 192
e 129 208
e 129 210
e 129 215
e 129 234
e 129 238
e 129 245
e 129 248
e 130 155
e 130 174
e 130 178
e 130 191
e 130 206
e 130 207
e 130 240
e 131 147
e 131 151
e 131 165
e 131 198
e 131 199
e 131 200
e 131 201
e 131 207
e 131 212
e 131 223
e 131 225
e 131 229
e 131 237
e 132 163
e 132 172
e 132 175
e 132 180
e 132 184
e 132 190
e 132 191
e 132 205
e 132 239
e 133 134
e 133 139
e 133 144
e 133 145
e 133 149
e 133 159
e 133 185
e 133 207
e 133 208
e 133 214
e 133 217
e 133 222
e 133 248
e 134 136
e 134 171
e 134 178
e 134 186
e 134 196
e 134 208
e 134 218
e 134 231
e 134 237
e 135 137
e 135 138
e 135 147
e 135 173
e 135 174
e 135 177
e 135 179
e 135 192
e 135 202
e 135 203
e 135 209
e 135 222
e 135 225
e 135 228
e 135 239
e 135 243
e 135 248
e 136 173
e 136 174
e 136 176
e 136 190
e 136 212
e 136 214
e 136 222
e 136 233
e 137 146
e 137 151
e 137 164
e 137 168
e 137 174
e 137 183
e 137 191
e 137 201
e 137 204
e 137 206
e 137 212
e 137 220
e 137 225
e 137 240
e 138 146
e 138 147
e 138 175
e 138 180
e 138 204
e 138 207
e 138 219
e 138 228
e 138 229
e 138 243
e 139 157
e 139 170
e 139 177
e 139 181
e 139 192
e 139 208
e 139 222
e 139 227
e 139 235
e 140 152
e 140 154
e 140 165
e 140 173
e 140 177
e 140 182
e 140 183
e 140 198
e 140 200
e 140 202
e 140 235
e 140 247
e 141 167
e 141 174
e 141 178
e 141 186
e 141 188
e 141 201
e 141 205
e 141 220
e 141 226
e 141 233
e 141 241
e 142 155
e 142 174
e 142 176
e 142 184
e 142 206
e 142 231
e 142 235
e 143 150
e 143 155
e 143 166
e 143 177
e 143 193
e 143 194
e 143 196
e 143 200
e 143 211
e 143 213
e 143 219
e 143 221
e 143 232
e 143 234
e 143 235
e 143 236
e 143 240
e 144 156
e 144 157
e 144 158
e 144 178
e 144 183
e 144 189
e 144 203
e 144 220
e 144 232
e 144 234
e 144 242
e 144 247
e 145 153
e 145 159
e 145 163
e 145 173
e 145 179
e 145 203
e 145 207
e 145 231
e 146 152
e 146 159
e 146 164
e 146 172
e 146 177
e 146 186
e 146 190
e 146 193
e 146 214
e 146 224
e 146 231
e 146 232
e 146 240
e 146 249
e 147 152
e 147 158
e 147 168
e 147 183
e 147 184
e 147 186
e 147 195
e 147 198
e 147 206
e 147 209
e 147 214
e 147 215
e 147 218
e 147 237
e 147 248
e 148 156
e 148 171
e 148 189
e 148 191
e 148 195
e 148 205
e 148 234
e 149 153
e 149 156
e 149 160
e 149 165
e 149 170
e 149 171
e 149 175
e 149 177
e 149 183
e 149 185
e 149 201
e 149 204
e 149 209
e 149 240
e 150 159
e 150 204
e 150 205
e 150 229
e 150 232
e 150 233
e 150 244
e 151 162
e 151 173
e 151 180
e 151 218
e 151 221
e 151 226
e 152 154
e 152 155
e 152 158
e 152 165
e 152 184
e 152 189
e 152 193
e 152 197
e 152 199
e 152 224
e 152 232
e 152 240
e 152 245
e 152 248
e 153 170
e 153 180
e 153 191
e 153 193
e 153 195
e 153 201
e 153 216
e 153 219
e 153 221
e 153 225
e 153 227
e 153 231
e 153 241
e 153 242
e 154 168
e 154 171
e 154 172
e 154 180
e 154 186
e 154 194
e 154 202
e 154 203
e 154 216
e 154 224
e 155 160
e 155 177
e 155 185
e 155 186
e 155 238
e 155 240
e 155 242
e 155 246
e 156 182
e 156 183
e 156 187
e 156 201
e 156 204
e 156 214
e 156 232
e 156 246
e 157 158
e 157 168
e 157 198
e 157 206
e 157 207
e 157 221
e 157 234
e 157 242
e 157 249
e 158 177
e 158 188
e 158 189
e 158 195
e 158 201
e 158 206
e 158 224
e 158 227
e 158 228
e 158 245
e 158 248
e 159 160
e 159 161
e 159 170
e 159 184
e 159 191
e 159 203
e 159 215
e 159 229
e 159 234
e 159 242
e 159 247
e 160 172
e 160 176
e 160 177
e 160 188
e 160 209
e 160 214
e 160 222
e 160 235
e 160 248
e 161 162
e 161 187
e 161 188
e 161 194
e 161 198
e 161 210
e 161 219
e 161 229
e 161 230
e 161 233
e 161 241
e 162 171
e 162 176
e 162 177
e 162 182
e 162 199
e 162 203
e 162 219
e 162 221
e 162 224
e 162 238
e 162 244
e 162 248
e 163 169
e 163 185
e 163 189
e 163 192
e 163 198
e 163 200
e 163 202
e 163 213
e 163 220
e 163 233
e 163 241
e 163 246
e 163 249
e 164 188
e 164 193
e 164 195
e 164 214
e 164 221
e 164 227
e 164 232
e 164 249
e 165 168
e 165 179
e 165 197
e 165 199
e 165 238
e 165 249
e 166 168
e 166 171
e 166 175
e 166 176
e 166 178
e 166 186
e 166 208
e 166 218
e 166 225
e 166 232
e 166 233
e 166 237
e 166 238
e 166 240
e 166 243
e 167 197
e 167 199
e 167 202
e 167 203
e 167 205
e 167 217
e 167 219
e 167 221
e 167 226
e 168 181
e 168 204
e 168 205
e 168 213
e 169 171
e 169 172
e 169 173
e 169 176
e 169 179
e 169 190
e 169 220
e 169 226
e 169 228
e 170 181
e 170 182
e 170 188
e 170 205
e 170 228
e 170 238
e 171 175
e 171 179
e 171 186
e 171 200
e 171 210
e 171 212
e 171 216
e 171 232
e 171 234
e 171 237
e 171 238
e 171 246
e 172 184
e 172 187
e 172 205
e 172 214
e 172 216
e 172 222
e 172 223
e 172 228
e 172 231
e 172 236
e 172 247
e 172 249
e 173 196
e 173 200
e 173 212
e 173 214
e 173 217
e 174 188
e 174 191
e 174 192
e 174 197
e 174 209
e 174 210
e 174 230
e 174 232
e 174 233
e 174 244
e 175 179
e 175 183
e 175 201
e 175 217
e 175 249
e 176 183
e 176 188
e 176 196
e 176 198
e 176 202
e 176 207
e 176 219
e 176 228
e 176 235
e 176 242
e 176 246
e 177 178
e 177 186
e 177 189
e 177 194
e 177 197
e 177 209
e 177 214
e 177 215
e 177 216
e 177 228
e 177 229
e 177 232
e 177 238
e 178 182
e 178 183
e 178 186
e 178 188
e 178 190
e 178 191
e 178 196
e 178 204
e 178 208
e 178 213
e 178 230
e 178 242
e 179 191
e 179 202
e 179 208
e 179 219
e 179 229
e 179 231
e 179 234
e 179 241
e 180 188
e 180 199
e 180 230
e 180 236
e 181 189
e 181 194
e 181 219
e 181 221
e 181 227
e 181 236
e 182 195
e 182 203
e 182 222
e 182 226
e 182 227
e 182 228
e 182 232
e 183 184
e 183 231
e 184 187
e 184 192
e 184 193
e 184 202
e 184 223
e 184 243
e 185 203
e 185 211
e 185 224
e 186 197
e 186 210
e 186 211
e 186 224
e 186 227
e 186 245
e 187 191
e 187 201
e 187 202
e 187 204
e 187 224
e 187 231
e 187 235
e 187 244
e 188 190
e 188 205
e 188 228
e 188 242
e 188 248
e 189 203
e 189 214
e 189 241
e 189 246
e 189 248
e 190 191
e 190 200
e 190 212
e 190 213
e 190 216
e 190 240
e 190 243
e 191 193
e 191 225
e 191 232
e 191 243
e 191 244
e 191 249
e 192 195
e 192 210
e 192 224
e 192 231
e 192 233
e 192 244
e 193 216
e 193 222
e 193 226
e 194 200
e 194 201
e 194 217
e 194 234
e 194 237
e 194 241
e 194 247
e 195 203
e 195 206
e 195 216
e 195 224
e 195 235
e 195 236
e 195 242
e 195 248
e 196 218
e 196 226
e 196 242
e 196 247
e 196 248
e 196 249
e 197 207
e 197 217
e 197 218
e 197 224
e 197 226
e 197 240
e 197 249
e 198 199
e 198 200
e 198 209
e 198 222
e 198 239
e 198 248
e 199 201
e 199 206
e 199 212
e 199 220
e 199 225
e 199 229
e 199 245
e 200 201
e 200 203
e 200 204
e 200 222
e 200 229
e 200 243
e 200 249
e 201 209
e 201 217
e 201 241
e 201 242
e 202 244
e 203 204
e 203 214
e 203 216
e 203 217
e 203 229
e 203 239
e 203 248
e 204 210
e 204 212
e 204 217
e 204 239
e 205 206
e 205 208
e 205 209
e 205 217
e 205 219
e 205 226
e 205 246
e 206 233
e 206 236
e 206 248
e 207 235
e 207 244
e 207 247
e 207 249
e 208 224
e 208 229
e 208 238
e 208 243
e 209 212
e 209 214
e 209 215
e 209 216
e 209 220
e 209 235
e 209 237
e 209 242
e 210 231
e 210 234
e 210 243
e 210 247
e 211 216
e 211 219
e 211 226
e 211 236
e 211 247
e 212 214
e 212 226
e 212 229
e 212 230
e 213 217
e 213 224
e 213 239
e 213 247
e 214 217
e 214 224
e 215 232
e 216 229
e 216 232
e 216 238
e 216 240
e 216 242
e 217 221
e 217 222
e 218 229
e 218 233
e 218 234
e 218 241
e 219 232
e 219 233
e 219 234
e 219 244
e 220 229
e 221 222
e 222 233
e 222 244
e 223 225
e 224 228
e 224 237
e 224 242
e 224 246
e 225 234
e 225 235
e 225 239
e 225 246
e 226 233
e 226 241
e 227 240
e 227 246
e 227 247
e 228 240
e 228 243
e 228 244
e 229 231
e 229 241
e 229 248
e 230 237
e 230 243
e 230 246
e 231 240
e 232 242
e 233 235
e 234 236
e 235 245
e 237 238
e 237 244
e 238 243
e 239 243
e 239 244
e 239 245
e 240 249
e 241 248
e 242 244
e 243 244
e 243 247
e 243 248
e 244 249
e 245 246
